out/bwp_6_11_1_lp.out
13
5 12    5 12
-0 -0    0 1
3 2    4 2
5 8    5 9
5 10    5 11
5 2    5 4
5 5    5 7
1 -0    2 2
3 -0    5 1
-0 3    4 7
-0 8    4 12
