out/bwp_6_11_1_lp.log
Tried aggregator 2 times.
MIP Presolve eliminated 14 rows and 34 columns.
MIP Presolve modified 215 coefficients.
Aggregator did 225 substitutions.
Reduced MIP has 1173 rows, 1066 columns, and 2933 nonzeros.
Reduced MIP has 640 binaries, 21 generals, 0 SOSs, and 220 indicators.
Presolve time = 0.01 sec. (3.20 ticks)
Found incumbent of value 31.000000 after 0.02 sec. (5.89 ticks)
Probing fixed 30 vars, tightened 241 bounds.
Probing changed sense of 16 constraints.
Probing time = 0.04 sec. (11.17 ticks)
Tried aggregator 3 times.
MIP Presolve eliminated 46 rows and 37 columns.
MIP Presolve modified 672 coefficients.
Aggregator did 400 substitutions.
Reduced MIP has 727 rows, 629 columns, and 2201 nonzeros.
Reduced MIP has 493 binaries, 117 generals, 0 SOSs, and 200 indicators.
Presolve time = 0.01 sec. (5.00 ticks)
Probing time = 0.01 sec. (3.19 ticks)
Tried aggregator 1 time.
Reduced MIP has 727 rows, 629 columns, and 2201 nonzeros.
Reduced MIP has 493 binaries, 117 generals, 0 SOSs, and 200 indicators.
Presolve time = 0.00 sec. (1.15 ticks)
Probing time = 0.01 sec. (2.15 ticks)
Clique table members: 1632.
MIP emphasis: balance optimality and feasibility.
MIP search method: dynamic search.
Parallel mode: deterministic, using up to 4 threads.
Root relaxation solution time = 0.00 sec. (2.16 ticks)

        Nodes                                         Cuts/
   Node  Left     Objective  IInf  Best Integer    Best Bound    ItCnt     Gap

*     0+    0                           31.0000       13.0000      250   58.06%
      0     0       13.0000   226       31.0000       13.0000      250   58.06%
      0     0       13.0000    54       31.0000      Cuts: 26      267   58.06%
      0     0       13.0000   121       31.0000      Cuts: 58      315   58.06%
      0     0       13.0000   129       31.0000      Cuts: 25      369   58.06%
*     0+    0                           16.0000       13.0000      369   18.75%

Repeating presolve.
Tried aggregator 2 times.
MIP Presolve eliminated 258 rows and 213 columns.
MIP Presolve modified 387 coefficients.
Aggregator did 8 substitutions.
Reduced MIP has 463 rows, 408 columns, and 1433 nonzeros.
Reduced MIP has 280 binaries, 109 generals, 0 SOSs, and 198 indicators.
Presolve time = 0.01 sec. (2.26 ticks)
Probing fixed 0 vars, tightened 64 bounds.
Probing time = 0.01 sec. (1.78 ticks)
Tried aggregator 2 times.
MIP Presolve eliminated 10 rows and 4 columns.
MIP Presolve modified 145 coefficients.
Aggregator did 1 substitutions.
Reduced MIP has 452 rows, 403 columns, and 1411 nonzeros.
Reduced MIP has 276 binaries, 109 generals, 0 SOSs, and 198 indicators.
Presolve time = 0.01 sec. (2.08 ticks)
Probing time = 0.00 sec. (1.41 ticks)
Tried aggregator 1 time.
Reduced MIP has 452 rows, 403 columns, and 1411 nonzeros.
Reduced MIP has 276 binaries, 109 generals, 0 SOSs, and 198 indicators.
Presolve time = 0.00 sec. (0.71 ticks)
Represolve time = 0.03 sec. (9.60 ticks)
Probing time = 0.00 sec. (1.41 ticks)
Clique table members: 555.
MIP emphasis: balance optimality and feasibility.
MIP search method: dynamic search.
Parallel mode: deterministic, using up to 4 threads.
Root relaxation solution time = 0.00 sec. (1.27 ticks)

        Nodes                                         Cuts/
   Node  Left     Objective  IInf  Best Integer    Best Bound    ItCnt     Gap

*     0+    0                           16.0000       13.0000      515   18.75%
      0     0       13.0000   140       16.0000       13.0000      515   18.75%
*     0+    0                           15.0000       13.0000      535   13.33%
      0     0       13.0000    89       15.0000      Cuts: 12      535   13.33%
      0     0       13.0000    99       15.0000      Cuts: 55      588   13.33%
      0     2       13.0000    24       15.0000       13.0000      588   13.33%
Elapsed time = 0.44 sec. (145.84 ticks, tree = 0.01 MB, solutions = 3)
*    98+   83                           14.0000       13.0000     1217    7.14%
*   165    85      integral     0       13.0000       13.0000     1610    0.00%

Clique cuts applied:  6
Cover cuts applied:  7
Implied bound cuts applied:  19
Mixed integer rounding cuts applied:  1
Zero-half cuts applied:  2
Gomory fractional cuts applied:  5

Root node processing (before b&c):
  Real time             =    0.44 sec. (145.65 ticks)
Parallel b&c, 4 threads:
  Real time             =    0.04 sec. (15.00 ticks)
  Sync time (average)   =    0.01 sec.
  Wait time (average)   =    0.00 sec.
                          ------------
Total (root+branch&cut) =    0.49 sec. (160.65 ticks)
